c "805889.clq"
p edge 250 3744
e 1 17
e 1 18
e 1 19
e 1 20
e 1 22
e 1 26
e 1 28
e 1 30
e 1 32
e 1 34
e 1 35
e 1 38
e 1 41
e 1 50
e 1 52
e 1 54
e 1 63
e 1 65
e 1 66
e 1 71
e 1 79
e 1 86
e 1 93
e 1 95
e 1 97
e 1 104
e 1 105
e 1 107
e 1 118
e 1 126
e 1 133
e 1 178
e 1 204
e 1 207
e 1 209
e 1 236
e 2 17
e 2 18
e 2 20
e 2 21
e 2 24
e 2 25
e 2 27
e 2 28
e 2 29
e 2 30
e 2 31
e 2 35
e 2 36
e 2 38
e 2 44
e 2 47
e 2 48
e 2 55
e 2 63
e 2 66
e 2 70
e 2 71
e 2 72
e 2 78
e 2 87
e 2 96
e 2 114
e 2 116
e 2 125
e 2 128
e 2 132
e 2 133
e 2 135
e 2 141
e 2 144
e 2 152
e 2 164
e 2 167
e 2 174
e 2 176
e 2 178
e 2 180
e 2 183
e 2 195
e 2 199
e 2 206
e 2 208
e 2 227
e 2 231
e 2 233
e 2 235
e 2 240
e 2 247
e 3 17
e 3 18
e 3 19
e 3 21
e 3 22
e 3 25
e 3 28
e 3 40
e 3 46
e 3 63
e 3 66
e 3 69
e 3 74
e 3 85
e 3 101
e 3 105
e 3 111
e 3 116
e 3 147
e 3 169
e 3 222
e 3 232
e 3 242
e 4 17
e 4 18
e 4 19
e 4 20
e 4 21
e 4 22
e 4 23
e 4 25
e 4 26
e 4 27
e 4 28
e 4 29
e 4 30
e 4 32
e 4 33
e 4 40
e 4 41
e 4 44
e 4 48
e 4 50
e 4 55
e 4 73
e 4 89
e 4 100
e 4 104
e 4 107
e 4 126
e 4 139
e 4 169
e 4 172
e 4 173
e 4 178
e 4 179
e 4 182
e 4 190
e 4 193
e 4 199
e 4 218
e 4 226
e 4 238
e 5 17
e 5 18
e 5 19
e 5 21
e 5 22
e 5 23
e 5 24
e 5 25
e 5 26
e 5 28
e 5 29
e 5 31
e 5 32
e 5 33
e 5 34
e 5 35
e 5 36
e 5 38
e 5 40
e 5 41
e 5 46
e 5 49
e 5 51
e 5 55
e 5 57
e 5 65
e 5 68
e 5 75
e 5 86
e 5 88
e 5 89
e 5 91
e 5 101
e 5 113
e 5 123
e 5 129
e 5 133
e 5 145
e 5 157
e 5 158
e 5 161
e 5 194
e 5 198
e 5 199
e 5 204
e 5 210
e 5 212
e 5 219
e 5 237
e 6 17
e 6 18
e 6 19
e 6 20
e 6 21
e 6 24
e 6 27
e 6 31
e 6 37
e 6 38
e 6 43
e 6 46
e 6 52
e 6 54
e 6 60
e 6 64
e 6 66
e 6 74
e 6 75
e 6 76
e 6 82
e 6 91
e 6 92
e 6 93
e 6 95
e 6 106
e 6 110
e 6 111
e 6 138
e 6 147
e 6 158
e 6 164
e 6 168
e 6 169
e 6 181
e 6 203
e 6 214
e 6 228
e 6 235
e 6 237
e 7 17
e 7 19
e 7 20
e 7 21
e 7 22
e 7 24
e 7 38
e 7 47
e 7 50
e 7 57
e 7 60
e 7 80
e 7 112
e 7 130
e 7 139
e 7 171
e 7 181
e 7 182
e 7 214
e 8 17
e 8 18
e 8 19
e 8 20
e 8 21
e 8 22
e 8 23
e 8 26
e 8 27
e 8 38
e 8 39
e 8 42
e 8 43
e 8 47
e 8 56
e 8 63
e 8 73
e 8 74
e 8 75
e 8 76
e 8 77
e 8 79
e 8 81
e 8 82
e 8 83
e 8 85
e 8 86
e 8 87
e 8 91
e 8 99
e 8 113
e 8 114
e 8 117
e 8 118
e 8 130
e 8 134
e 8 138
e 8 152
e 8 163
e 8 164
e 8 200
e 8 214
e 8 228
e 8 233
e 8 239
e 8 243
e 9 17
e 9 18
e 9 19
e 9 20
e 9 21
e 9 23
e 9 29
e 9 31
e 9 32
e 9 33
e 9 38
e 9 39
e 9 41
e 9 43
e 9 46
e 9 48
e 9 51
e 9 54
e 9 64
e 9 71
e 9 76
e 9 86
e 9 87
e 9 88
e 9 90
e 9 94
e 9 95
e 9 96
e 9 102
e 9 104
e 9 109
e 9 119
e 9 120
e 9 137
e 9 143
e 9 147
e 9 159
e 9 168
e 9 179
e 9 180
e 9 183
e 9 189
e 9 191
e 9 208
e 9 221
e 9 223
e 9 234
e 9 244
e 9 246
e 10 17
e 10 18
e 10 20
e 10 21
e 10 22
e 10 23
e 10 24
e 10 25
e 10 26
e 10 27
e 10 30
e 10 33
e 10 37
e 10 40
e 10 46
e 10 47
e 10 49
e 10 51
e 10 53
e 10 59
e 10 64
e 10 66
e 10 67
e 10 68
e 10 73
e 10 84
e 10 88
e 10 93
e 10 98
e 10 108
e 10 110
e 10 112
e 10 128
e 10 131
e 10 137
e 10 139
e 10 162
e 10 166
e 10 175
e 10 181
e 10 190
e 10 234
e 10 236
e 10 250
e 11 17
e 11 18
e 11 19
e 11 20
e 11 21
e 11 22
e 11 23
e 11 24
e 11 28
e 11 29
e 11 33
e 11 34
e 11 37
e 11 41
e 11 42
e 11 44
e 11 50
e 11 53
e 11 57
e 11 65
e 11 69
e 11 79
e 11 93
e 11 94
e 11 100
e 11 106
e 11 117
e 11 132
e 11 136
e 11 146
e 11 147
e 11 150
e 11 153
e 11 160
e 11 179
e 11 182
e 11 185
e 11 193
e 11 201
e 11 225
e 11 228
e 11 247
e 11 249
e 12 17
e 12 18
e 12 19
e 12 22
e 12 25
e 12 26
e 12 27
e 12 57
e 12 67
e 12 71
e 12 84
e 12 98
e 12 103
e 12 115
e 12 155
e 12 166
e 12 172
e 12 174
e 12 192
e 12 199
e 12 210
e 12 218
e 12 222
e 12 244
e 13 17
e 13 18
e 13 19
e 13 20
e 13 23
e 13 24
e 13 25
e 13 26
e 13 28
e 13 29
e 13 30
e 13 31
e 13 34
e 13 36
e 13 37
e 13 38
e 13 39
e 13 41
e 13 46
e 13 63
e 13 70
e 13 80
e 13 87
e 13 95
e 13 96
e 13 102
e 13 107
e 13 113
e 13 120
e 13 128
e 13 141
e 13 150
e 13 152
e 13 157
e 13 174
e 13 175
e 13 182
e 13 187
e 13 188
e 13 198
e 13 201
e 13 215
e 13 222
e 14 17
e 14 18
e 14 19
e 14 20
e 14 22
e 14 23
e 14 24
e 14 25
e 14 26
e 14 27
e 14 29
e 14 30
e 14 32
e 14 37
e 14 38
e 14 42
e 14 48
e 14 49
e 14 54
e 14 59
e 14 62
e 14 63
e 14 68
e 14 72
e 14 76
e 14 89
e 14 99
e 14 100
e 14 117
e 14 120
e 14 125
e 14 141
e 14 153
e 14 154
e 14 155
e 14 158
e 14 174
e 14 179
e 14 187
e 14 202
e 14 208
e 14 229
e 14 230
e 14 231
e 14 249
e 15 17
e 15 18
e 15 19
e 15 20
e 15 21
e 15 22
e 15 23
e 15 26
e 15 31
e 15 33
e 15 34
e 15 35
e 15 36
e 15 37
e 15 45
e 15 46
e 15 48
e 15 52
e 15 58
e 15 62
e 15 64
e 15 65
e 15 67
e 15 71
e 15 80
e 15 82
e 15 92
e 15 95
e 15 96
e 15 120
e 15 122
e 15 125
e 15 128
e 15 136
e 15 137
e 15 170
e 15 172
e 15 182
e 15 196
e 15 197
e 15 202
e 15 207
e 15 227
e 15 228
e 16 17
e 16 18
e 16 19
e 16 20
e 16 21
e 16 23
e 16 24
e 16 25
e 16 30
e 16 32
e 16 33
e 16 35
e 16 36
e 16 38
e 16 47
e 16 48
e 16 51
e 16 52
e 16 61
e 16 68
e 16 71
e 16 76
e 16 77
e 16 80
e 16 100
e 16 105
e 16 114
e 16 119
e 16 128
e 16 132
e 16 138
e 16 141
e 16 148
e 16 153
e 16 154
e 16 167
e 16 179
e 16 180
e 16 181
e 16 197
e 16 199
e 16 208
e 16 212
e 16 216
e 16 226
e 17 18
e 17 19
e 17 20
e 17 21
e 17 22
e 17 23
e 17 24
e 17 25
e 17 26
e 17 27
e 17 28
e 17 29
e 17 30
e 17 31
e 17 33
e 17 34
e 17 35
e 17 36
e 17 39
e 17 40
e 17 41
e 17 42
e 17 43
e 17 45
e 17 50
e 17 53
e 17 56
e 17 59
e 17 60
e 17 61
e 17 62
e 17 66
e 17 73
e 17 74
e 17 75
e 17 78
e 17 85
e 17 88
e 17 89
e 17 90
e 17 91
e 17 102
e 17 104
e 17 105
e 17 106
e 17 108
e 17 113
e 17 115
e 17 122
e 17 126
e 17 130
e 17 131
e 17 134
e 17 140
e 17 142
e 17 144
e 17 155
e 17 157
e 17 160
e 17 165
e 17 175
e 17 178
e 17 185
e 17 189
e 17 192
e 17 198
e 17 199
e 17 217
e 17 221
e 17 230
e 17 231
e 17 233
e 18 19
e 18 20
e 18 21
e 18 22
e 18 23
e 18 24
e 18 27
e 18 29
e 18 30
e 18 31
e 18 32
e 18 34
e 18 35
e 18 36
e 18 37
e 18 40
e 18 41
e 18 43
e 18 45
e 18 46
e 18 50
e 18 52
e 18 53
e 18 55
e 18 56
e 18 57
e 18 64
e 18 65
e 18 70
e 18 71
e 18 72
e 18 74
e 18 76
e 18 77
e 18 79
e 18 81
e 18 92
e 18 101
e 18 102
e 18 104
e 18 107
e 18 108
e 18 115
e 18 121
e 18 126
e 18 130
e 18 133
e 18 142
e 18 145
e 18 146
e 18 149
e 18 162
e 18 164
e 18 169
e 18 175
e 18 181
e 18 182
e 18 184
e 18 188
e 18 214
e 18 215
e 18 232
e 18 246
e 19 20
e 19 21
e 19 22
e 19 23
e 19 24
e 19 25
e 19 26
e 19 27
e 19 28
e 19 31
e 19 32
e 19 33
e 19 34
e 19 36
e 19 38
e 19 39
e 19 42
e 19 45
e 19 50
e 19 51
e 19 52
e 19 54
e 19 57
e 19 62
e 19 64
e 19 66
e 19 69
e 19 70
e 19 74
e 19 77
e 19 78
e 19 83
e 19 84
e 19 87
e 19 96
e 19 97
e 19 124
e 19 126
e 19 131
e 19 134
e 19 154
e 19 176
e 19 194
e 19 202
e 19 209
e 19 210
e 19 212
e 19 213
e 19 222
e 19 226
e 19 236
e 19 238
e 19 246
e 19 249
e 20 21
e 20 22
e 20 23
e 20 24
e 20 25
e 20 26
e 20 27
e 20 28
e 20 29
e 20 31
e 20 32
e 20 33
e 20 35
e 20 36
e 20 38
e 20 39
e 20 41
e 20 42
e 20 45
e 20 47
e 20 51
e 20 52
e 20 59
e 20 64
e 20 65
e 20 69
e 20 70
e 20 72
e 20 74
e 20 77
e 20 80
e 20 86
e 20 89
e 20 90
e 20 93
e 20 102
e 20 103
e 20 105
e 20 107
e 20 112
e 20 118
e 20 123
e 20 125
e 20 130
e 20 133
e 20 139
e 20 142
e 20 156
e 20 157
e 20 159
e 20 162
e 20 163
e 20 168
e 20 173
e 20 175
e 20 177
e 20 178
e 20 184
e 20 187
e 20 188
e 20 192
e 20 201
e 20 203
e 20 211
e 20 212
e 20 219
e 20 235
e 20 236
e 20 240
e 21 22
e 21 23
e 21 24
e 21 25
e 21 26
e 21 27
e 21 28
e 21 29
e 21 30
e 21 32
e 21 35
e 21 36
e 21 37
e 21 39
e 21 40
e 21 44
e 21 45
e 21 46
e 21 49
e 21 50
e 21 53
e 21 55
e 21 56
e 21 57
e 21 59
e 21 61
e 21 62
e 21 67
e 21 68
e 21 71
e 21 75
e 21 76
e 21 80
e 21 81
e 21 82
e 21 85
e 21 90
e 21 93
e 21 94
e 21 96
e 21 98
e 21 99
e 21 109
e 21 110
e 21 111
e 21 112
e 21 115
e 21 122
e 21 123
e 21 125
e 21 134
e 21 135
e 21 137
e 21 138
e 21 143
e 21 145
e 21 151
e 21 159
e 21 160
e 21 161
e 21 162
e 21 167
e 21 170
e 21 171
e 21 177
e 21 184
e 21 198
e 21 199
e 21 210
e 21 211
e 21 224
e 21 226
e 21 229
e 21 230
e 21 233
e 21 236
e 21 248
e 21 249
e 22 23
e 22 24
e 22 25
e 22 26
e 22 27
e 22 28
e 22 29
e 22 30
e 22 31
e 22 33
e 22 36
e 22 39
e 22 40
e 22 41
e 22 42
e 22 48
e 22 51
e 22 52
e 22 53
e 22 59
e 22 62
e 22 63
e 22 72
e 22 77
e 22 79
e 22 80
e 22 86
e 22 87
e 22 91
e 22 93
e 22 95
e 22 98
e 22 99
e 22 101
e 22 103
e 22 104
e 22 106
e 22 107
e 22 108
e 22 110
e 22 112
e 22 122
e 22 127
e 22 130
e 22 131
e 22 132
e 22 134
e 22 142
e 22 148
e 22 149
e 22 150
e 22 155
e 22 156
e 22 163
e 22 165
e 22 169
e 22 177
e 22 178
e 22 183
e 22 185
e 22 188
e 22 200
e 22 206
e 22 212
e 22 217
e 22 219
e 22 220
e 22 227
e 22 237
e 22 241
e 22 243
e 22 248
e 22 249
e 23 24
e 23 25
e 23 28
e 23 29
e 23 31
e 23 32
e 23 33
e 23 34
e 23 36
e 23 37
e 23 39
e 23 41
e 23 42
e 23 43
e 23 44
e 23 45
e 23 46
e 23 48
e 23 51
e 23 53
e 23 56
e 23 57
e 23 58
e 23 60
e 23 61
e 23 63
e 23 64
e 23 65
e 23 70
e 23 71
e 23 73
e 23 74
e 23 83
e 23 84
e 23 88
e 23 93
e 23 95
e 23 96
e 23 99
e 23 109
e 23 111
e 23 114
e 23 115
e 23 116
e 23 118
e 23 119
e 23 127
e 23 132
e 23 136
e 23 137
e 23 139
e 23 140
e 23 142
e 23 144
e 23 146
e 23 168
e 23 172
e 23 175
e 23 177
e 23 180
e 23 182
e 23 201
e 23 205
e 23 231
e 23 234
e 23 235
e 23 240
e 23 246
e 24 25
e 24 26
e 24 27
e 24 28
e 24 29
e 24 30
e 24 31
e 24 32
e 24 33
e 24 34
e 24 35
e 24 36
e 24 37
e 24 38
e 24 39
e 24 41
e 24 43
e 24 44
e 24 45
e 24 48
e 24 49
e 24 54
e 24 58
e 24 66
e 24 67
e 24 69
e 24 70
e 24 71
e 24 76
e 24 78
e 24 79
e 24 82
e 24 86
e 24 89
e 24 91
e 24 97
e 24 102
e 24 105
e 24 106
e 24 108
e 24 111
e 24 112
e 24 118
e 24 121
e 24 126
e 24 127
e 24 131
e 24 138
e 24 141
e 24 142
e 24 145
e 24 147
e 24 154
e 24 156
e 24 159
e 24 160
e 24 163
e 24 165
e 24 169
e 24 172
e 24 173
e 24 175
e 24 183
e 24 188
e 24 190
e 24 204
e 24 214
e 24 222
e 24 225
e 24 227
e 24 239
e 25 26
e 25 27
e 25 28
e 25 29
e 25 30
e 25 34
e 25 37
e 25 42
e 25 45
e 25 51
e 25 52
e 25 56
e 25 61
e 25 63
e 25 65
e 25 69
e 25 72
e 25 77
e 25 83
e 25 88
e 25 97
e 25 105
e 25 109
e 25 116
e 25 123
e 25 135
e 25 136
e 25 138
e 25 140
e 25 148
e 25 149
e 25 152
e 25 154
e 25 157
e 25 161
e 25 165
e 25 167
e 25 171
e 25 174
e 25 184
e 25 185
e 25 186
e 25 190
e 25 193
e 25 201
e 25 203
e 25 207
e 25 210
e 25 216
e 25 226
e 25 231
e 25 232
e 25 239
e 25 248
e 26 27
e 26 29
e 26 30
e 26 31
e 26 32
e 26 33
e 26 35
e 26 40
e 26 41
e 26 42
e 26 43
e 26 46
e 26 47
e 26 49
e 26 51
e 26 52
e 26 54
e 26 59
e 26 60
e 26 64
e 26 66
e 26 70
e 26 81
e 26 86
e 26 88
e 26 95
e 26 102
e 26 103
e 26 108
e 26 113
e 26 114
e 26 116
e 26 118
e 26 119
e 26 127
e 26 128
e 26 132
e 26 135
e 26 139
e 26 140
e 26 142
e 26 148
e 26 150
e 26 152
e 26 156
e 26 158
e 26 159
e 26 161
e 26 163
e 26 169
e 26 171
e 26 179
e 26 185
e 26 190
e 26 191
e 26 199
e 26 200
e 26 213
e 26 220
e 26 222
e 26 231
e 26 241
e 27 28
e 27 31
e 27 32
e 27 33
e 27 34
e 27 38
e 27 39
e 27 40
e 27 42
e 27 44
e 27 45
e 27 48
e 27 49
e 27 50
e 27 54
e 27 56
e 27 58
e 27 59
e 27 60
e 27 61
e 27 62
e 27 68
e 27 71
e 27 72
e 27 73
e 27 75
e 27 78
e 27 79
e 27 80
e 27 81
e 27 84
e 27 94
e 27 95
e 27 98
e 27 103
e 27 104
e 27 113
e 27 115
e 27 120
e 27 127
e 27 128
e 27 130
e 27 131
e 27 134
e 27 138
e 27 140
e 27 141
e 27 145
e 27 149
e 27 150
e 27 152
e 27 155
e 27 159
e 27 160
e 27 161
e 27 167
e 27 173
e 27 181
e 27 182
e 27 183
e 27 190
e 27 195
e 27 201
e 27 204
e 27 206
e 27 216
e 27 220
e 27 228
e 27 233
e 27 235
e 27 241
e 27 249
e 28 30
e 28 32
e 28 34
e 28 35
e 28 43
e 28 44
e 28 49
e 28 53
e 28 54
e 28 55
e 28 57
e 28 62
e 28 65
e 28 67
e 28 74
e 28 83
e 28 88
e 28 91
e 28 94
e 28 95
e 28 101
e 28 102
e 28 108
e 28 111
e 28 112
e 28 115
e 28 132
e 28 133
e 28 135
e 28 136
e 28 139
e 28 143
e 28 149
e 28 152
e 28 159
e 28 161
e 28 165
e 28 178
e 28 184
e 28 196
e 28 198
e 28 205
e 28 206
e 28 207
e 28 212
e 28 221
e 28 230
e 28 235
e 28 240
e 28 242
e 28 247
e 29 30
e 29 36
e 29 38
e 29 39
e 29 42
e 29 45
e 29 46
e 29 50
e 29 54
e 29 61
e 29 65
e 29 67
e 29 68
e 29 75
e 29 77
e 29 89
e 29 105
e 29 118
e 29 131
e 29 137
e 29 142
e 29 143
e 29 150
e 29 161
e 29 169
e 29 177
e 29 180
e 29 182
e 29 188
e 29 189
e 29 192
e 29 198
e 29 213
e 30 31
e 30 32
e 30 33
e 30 34
e 30 35
e 30 36
e 30 39
e 30 40
e 30 42
e 30 43
e 30 44
e 30 47
e 30 52
e 30 55
e 30 56
e 30 59
e 30 61
e 30 66
e 30 69
e 30 70
e 30 72
e 30 74
e 30 81
e 30 82
e 30 90
e 30 92
e 30 94
e 30 98
e 30 101
e 30 110
e 30 111
e 30 114
e 30 116
e 30 124
e 30 133
e 30 134
e 30 151
e 30 153
e 30 155
e 30 157
e 30 158
e 30 164
e 30 178
e 30 190
e 30 203
e 30 206
e 30 221
e 30 227
e 30 243
e 31 34
e 31 35
e 31 37
e 31 38
e 31 39
e 31 40
e 31 45
e 31 46
e 31 49
e 31 51
e 31 53
e 31 58
e 31 66
e 31 67
e 31 70
e 31 82
e 31 86
e 31 90
e 31 99
e 31 100
e 31 101
e 31 102
e 31 119
e 31 122
e 31 124
e 31 131
e 31 138
e 31 143
e 31 144
e 31 160
e 31 164
e 31 165
e 31 166
e 31 173
e 31 174
e 31 188
e 31 211
e 31 213
e 31 216
e 31 219
e 31 221
e 31 226
e 31 242
e 32 34
e 32 35
e 32 36
e 32 39
e 32 40
e 32 43
e 32 44
e 32 47
e 32 48
e 32 50
e 32 53
e 32 55
e 32 56
e 32 57
e 32 58
e 32 59
e 32 61
e 32 63
e 32 64
e 32 68
e 32 69
e 32 70
e 32 74
e 32 78
e 32 83
e 32 85
e 32 89
e 32 96
e 32 98
e 32 104
e 32 124
e 32 140
e 32 141
e 32 144
e 32 147
e 32 153
e 32 155
e 32 156
e 32 161
e 32 162
e 32 166
e 32 168
e 32 177
e 32 182
e 32 196
e 32 197
e 32 202
e 32 210
e 32 211
e 32 218
e 32 223
e 32 231
e 32 237
e 32 242
e 32 244
e 33 35
e 33 37
e 33 41
e 33 43
e 33 49
e 33 51
e 33 54
e 33 58
e 33 60
e 33 68
e 33 83
e 33 92
e 33 94
e 33 112
e 33 113
e 33 129
e 33 133
e 33 136
e 33 150
e 33 151
e 33 158
e 33 161
e 33 162
e 33 166
e 33 170
e 33 175
e 33 178
e 33 180
e 33 200
e 33 206
e 33 211
e 33 215
e 33 228
e 33 236
e 33 241
e 34 37
e 34 40
e 34 41
e 34 45
e 34 47
e 34 50
e 34 51
e 34 56
e 34 58
e 34 59
e 34 60
e 34 61
e 34 63
e 34 66
e 34 68
e 34 71
e 34 74
e 34 75
e 34 78
e 34 82
e 34 83
e 34 85
e 34 86
e 34 90
e 34 92
e 34 100
e 34 102
e 34 105
e 34 107
e 34 124
e 34 134
e 34 136
e 34 139
e 34 143
e 34 147
e 34 148
e 34 150
e 34 156
e 34 167
e 34 170
e 34 174
e 34 176
e 34 182
e 34 187
e 34 188
e 34 192
e 34 196
e 34 205
e 34 213
e 34 220
e 34 225
e 34 234
e 34 239
e 34 242
e 34 244
e 34 245
e 34 250
e 35 37
e 35 39
e 35 43
e 35 44
e 35 45
e 35 46
e 35 48
e 35 53
e 35 55
e 35 56
e 35 57
e 35 60
e 35 61
e 35 67
e 35 75
e 35 81
e 35 84
e 35 87
e 35 100
e 35 108
e 35 109
e 35 110
e 35 111
e 35 118
e 35 124
e 35 126
e 35 135
e 35 143
e 35 145
e 35 146
e 35 152
e 35 155
e 35 159
e 35 162
e 35 168
e 35 170
e 35 180
e 35 189
e 35 193
e 35 198
e 35 199
e 35 217
e 35 228
e 35 230
e 35 232
e 36 37
e 36 40
e 36 44
e 36 45
e 36 49
e 36 56
e 36 58
e 36 60
e 36 64
e 36 70
e 36 72
e 36 75
e 36 82
e 36 86
e 36 87
e 36 96
e 36 98
e 36 102
e 36 107
e 36 113
e 36 121
e 36 139
e 36 153
e 36 156
e 36 157
e 36 171
e 36 175
e 36 191
e 36 196
e 36 200
e 36 201
e 36 209
e 36 216
e 36 221
e 36 223
e 36 225
e 36 229
e 36 230
e 36 241
e 37 41
e 37 42
e 37 44
e 37 47
e 37 49
e 37 50
e 37 51
e 37 53
e 37 55
e 37 56
e 37 57
e 37 64
e 37 65
e 37 66
e 37 67
e 37 68
e 37 69
e 37 75
e 37 77
e 37 79
e 37 81
e 37 85
e 37 91
e 37 92
e 37 93
e 37 97
e 37 103
e 37 106
e 37 108
e 37 122
e 37 123
e 37 126
e 37 128
e 37 131
e 37 143
e 37 149
e 37 152
e 37 153
e 37 159
e 37 166
e 37 167
e 37 197
e 37 204
e 37 217
e 37 218
e 37 233
e 37 237
e 37 241
e 37 242
e 37 250
e 38 42
e 38 44
e 38 45
e 38 48
e 38 56
e 38 58
e 38 61
e 38 62
e 38 71
e 38 72
e 38 77
e 38 83
e 38 87
e 38 91
e 38 94
e 38 96
e 38 105
e 38 116
e 38 117
e 38 125
e 38 129
e 38 140
e 38 154
e 38 162
e 38 185
e 38 193
e 38 196
e 38 199
e 38 208
e 38 211
e 38 216
e 38 225
e 38 229
e 38 235
e 38 238
e 38 241
e 38 243
e 38 247
e 39 40
e 39 43
e 39 50
e 39 53
e 39 54
e 39 55
e 39 57
e 39 59
e 39 68
e 39 69
e 39 91
e 39 92
e 39 108
e 39 115
e 39 116
e 39 121
e 39 139
e 39 141
e 39 153
e 39 157
e 39 158
e 39 172
e 39 176
e 39 187
e 39 193
e 39 195
e 39 200
e 39 205
e 39 224
e 39 226
e 40 43
e 40 47
e 40 54
e 40 60
e 40 64
e 40 73
e 40 80
e 40 84
e 40 87
e 40 98
e 40 104
e 40 111
e 40 116
e 40 117
e 40 118
e 40 123
e 40 124
e 40 127
e 40 130
e 40 131
e 40 143
e 40 144
e 40 146
e 40 154
e 40 155
e 40 158
e 40 164
e 40 167
e 40 179
e 40 183
e 40 196
e 40 224
e 40 232
e 40 234
e 40 238
e 40 239
e 40 241
e 41 42
e 41 43
e 41 44
e 41 47
e 41 59
e 41 62
e 41 64
e 41 65
e 41 78
e 41 85
e 41 91
e 41 99
e 41 100
e 41 103
e 41 104
e 41 105
e 41 119
e 41 121
e 41 135
e 41 136
e 41 137
e 41 144
e 41 145
e 41 151
e 41 159
e 41 166
e 41 170
e 41 182
e 41 188
e 41 201
e 41 208
e 41 209
e 41 212
e 41 241
e 41 249
e 42 47
e 42 60
e 42 66
e 42 73
e 42 78
e 42 79
e 42 98
e 42 99
e 42 108
e 42 109
e 42 134
e 42 136
e 42 139
e 42 163
e 42 166
e 42 180
e 42 186
e 42 203
e 42 210
e 42 229
e 43 44
e 43 47
e 43 48
e 43 49
e 43 51
e 43 53
e 43 55
e 43 56
e 43 58
e 43 77
e 43 88
e 43 103
e 43 104
e 43 107
e 43 108
e 43 114
e 43 115
e 43 118
e 43 124
e 43 126
e 43 129
e 43 131
e 43 143
e 43 159
e 43 162
e 43 165
e 43 175
e 43 189
e 43 195
e 43 198
e 43 200
e 43 203
e 43 210
e 43 231
e 44 46
e 44 47
e 44 50
e 44 51
e 44 55
e 44 57
e 44 58
e 44 63
e 44 65
e 44 67
e 44 70
e 44 76
e 44 80
e 44 81
e 44 82
e 44 84
e 44 89
e 44 90
e 44 92
e 44 114
e 44 115
e 44 129
e 44 140
e 44 147
e 44 156
e 44 168
e 44 171
e 44 173
e 44 189
e 44 190
e 44 192
e 44 196
e 44 203
e 44 205
e 44 218
e 44 225
e 44 230
e 44 233
e 44 235
e 44 237
e 44 245
e 45 46
e 45 48
e 45 49
e 45 50
e 45 52
e 45 59
e 45 60
e 45 63
e 45 73
e 45 75
e 45 80
e 45 84
e 45 85
e 45 86
e 45 87
e 45 88
e 45 92
e 45 97
e 45 106
e 45 114
e 45 120
e 45 127
e 45 134
e 45 144
e 45 153
e 45 162
e 45 171
e 45 195
e 45 214
e 45 216
e 46 49
e 46 55
e 46 58
e 46 62
e 46 64
e 46 68
e 46 69
e 46 71
e 46 72
e 46 75
e 46 78
e 46 81
e 46 83
e 46 105
e 46 106
e 46 112
e 46 116
e 46 119
e 46 125
e 46 127
e 46 129
e 46 132
e 46 149
e 46 194
e 46 198
e 46 209
e 46 219
e 46 242
e 46 243
e 46 248
e 47 48
e 47 49
e 47 52
e 47 69
e 47 76
e 47 82
e 47 84
e 47 88
e 47 100
e 47 102
e 47 103
e 47 106
e 47 114
e 47 119
e 47 122
e 47 145
e 47 147
e 47 152
e 47 159
e 47 160
e 47 207
e 47 224
e 47 236
e 47 248
e 47 250
e 48 52
e 48 53
e 48 54
e 48 57
e 48 62
e 48 68
e 48 71
e 48 74
e 48 77
e 48 81
e 48 82
e 48 83
e 48 97
e 48 106
e 48 122
e 48 124
e 48 125
e 48 127
e 48 132
e 48 133
e 48 142
e 48 148
e 48 152
e 48 161
e 48 166
e 48 174
e 48 185
e 48 189
e 48 191
e 48 194
e 48 206
e 48 220
e 48 223
e 48 227
e 48 233
e 48 235
e 48 238
e 48 244
e 48 247
e 49 52
e 49 54
e 49 61
e 49 62
e 49 66
e 49 71
e 49 72
e 49 75
e 49 84
e 49 89
e 49 93
e 49 98
e 49 106
e 49 107
e 49 109
e 49 113
e 49 116
e 49 117
e 49 136
e 49 150
e 49 167
e 49 171
e 49 186
e 49 192
e 49 198
e 49 199
e 49 205
e 49 216
e 49 220
e 49 227
e 49 231
e 49 247
e 49 248
e 50 85
e 50 93
e 50 112
e 50 134
e 50 160
e 50 163
e 50 165
e 50 196
e 50 204
e 50 213
e 50 221
e 50 222
e 50 223
e 50 229
e 50 232
e 50 237
e 51 52
e 51 53
e 51 67
e 51 69
e 51 81
e 51 82
e 51 86
e 51 96
e 51 98
e 51 118
e 51 120
e 51 121
e 51 130
e 51 145
e 51 157
e 51 160
e 51 177
e 51 183
e 51 184
e 51 187
e 51 208
e 51 219
e 51 224
e 51 238
e 51 246
e 52 55
e 52 67
e 52 72
e 52 79
e 52 87
e 52 91
e 52 101
e 52 107
e 52 123
e 52 124
e 52 134
e 52 162
e 52 164
e 52 165
e 52 180
e 52 230
e 52 232
e 53 54
e 53 55
e 53 58
e 53 59
e 53 60
e 53 72
e 53 76
e 53 77
e 53 93
e 53 95
e 53 100
e 53 124
e 53 130
e 53 146
e 53 148
e 53 149
e 53 151
e 53 191
e 53 196
e 53 201
e 53 212
e 53 220
e 53 221
e 53 223
e 53 236
e 53 244
e 54 56
e 54 65
e 54 70
e 54 77
e 54 81
e 54 90
e 54 91
e 54 92
e 54 94
e 54 95
e 54 103
e 54 109
e 54 110
e 54 113
e 54 114
e 54 120
e 54 121
e 54 123
e 54 127
e 54 128
e 54 142
e 54 143
e 54 145
e 54 165
e 54 170
e 54 187
e 54 193
e 54 194
e 54 202
e 54 209
e 54 214
e 54 222
e 54 227
e 54 230
e 54 234
e 54 236
e 54 238
e 54 241
e 55 57
e 55 58
e 55 60
e 55 69
e 55 77
e 55 81
e 55 86
e 55 102
e 55 105
e 55 110
e 55 111
e 55 115
e 55 117
e 55 119
e 55 126
e 55 141
e 55 161
e 55 193
e 55 223
e 55 241
e 55 247
e 56 58
e 56 65
e 56 68
e 56 73
e 56 78
e 56 79
e 56 85
e 56 95
e 56 103
e 56 107
e 56 149
e 56 152
e 56 168
e 56 176
e 56 182
e 56 187
e 56 192
e 56 204
e 56 209
e 56 217
e 56 223
e 56 225
e 56 229
e 56 232
e 57 60
e 57 67
e 57 73
e 57 99
e 57 100
e 57 104
e 57 108
e 57 136
e 57 145
e 57 170
e 57 171
e 57 174
e 57 188
e 57 193
e 57 197
e 57 203
e 57 215
e 57 226
e 57 230
e 57 233
e 58 59
e 58 61
e 58 62
e 58 63
e 58 67
e 58 72
e 58 74
e 58 78
e 58 89
e 58 90
e 58 91
e 58 94
e 58 98
e 58 104
e 58 105
e 58 109
e 58 112
e 58 122
e 58 123
e 58 135
e 58 138
e 58 141
e 58 150
e 58 157
e 58 173
e 58 183
e 58 186
e 58 195
e 58 200
e 58 201
e 58 208
e 58 211
e 58 217
e 58 220
e 58 233
e 58 244
e 59 61
e 59 65
e 59 76
e 59 78
e 59 82
e 59 84
e 59 101
e 59 107
e 59 115
e 59 124
e 59 129
e 59 138
e 59 170
e 59 180
e 59 182
e 59 197
e 59 212
e 59 215
e 59 246
e 60 61
e 60 62
e 60 67
e 60 73
e 60 76
e 60 80
e 60 82
e 60 85
e 60 88
e 60 94
e 60 98
e 60 101
e 60 105
e 60 108
e 60 111
e 60 116
e 60 118
e 60 119
e 60 132
e 60 133
e 60 134
e 60 140
e 60 142
e 60 143
e 60 149
e 60 150
e 60 167
e 60 177
e 60 190
e 60 212
e 60 217
e 60 226
e 60 229
e 60 237
e 60 246
e 61 62
e 61 63
e 61 72
e 61 78
e 61 83
e 61 89
e 61 90
e 61 97
e 61 101
e 61 109
e 61 118
e 61 122
e 61 128
e 61 132
e 61 153
e 61 155
e 61 175
e 61 176
e 61 185
e 61 224
e 61 225
e 61 247
e 62 63
e 62 64
e 62 66
e 62 70
e 62 87
e 62 94
e 62 101
e 62 102
e 62 104
e 62 107
e 62 109
e 62 118
e 62 128
e 62 134
e 62 141
e 62 144
e 62 187
e 62 202
e 62 205
e 62 212
e 62 219
e 62 223
e 63 73
e 63 79
e 63 88
e 63 92
e 63 93
e 63 98
e 63 104
e 63 114
e 63 117
e 63 120
e 63 121
e 63 132
e 63 143
e 63 144
e 63 149
e 63 156
e 63 162
e 63 168
e 63 169
e 63 170
e 63 174
e 63 185
e 63 190
e 63 197
e 63 209
e 63 215
e 63 226
e 63 249
e 64 69
e 64 70
e 64 76
e 64 77
e 64 79
e 64 83
e 64 85
e 64 100
e 64 119
e 64 129
e 64 130
e 64 137
e 64 144
e 64 152
e 64 165
e 64 172
e 64 178
e 64 180
e 64 189
e 64 201
e 64 207
e 64 208
e 64 234
e 64 239
e 64 245
e 65 68
e 65 69
e 65 80
e 65 81
e 65 84
e 65 85
e 65 87
e 65 89
e 65 95
e 65 97
e 65 108
e 65 114
e 65 117
e 65 122
e 65 123
e 65 125
e 65 127
e 65 129
e 65 151
e 65 155
e 65 167
e 65 168
e 65 174
e 65 176
e 65 190
e 65 199
e 65 208
e 65 209
e 65 210
e 65 227
e 65 228
e 65 246
e 65 249
e 66 78
e 66 96
e 66 99
e 66 110
e 66 113
e 66 123
e 66 134
e 66 184
e 66 186
e 66 198
e 66 200
e 66 211
e 66 236
e 66 250
e 67 79
e 67 96
e 67 97
e 67 103
e 67 106
e 67 116
e 67 127
e 67 173
e 67 177
e 67 179
e 67 195
e 67 220
e 68 73
e 68 80
e 68 92
e 68 93
e 68 94
e 68 111
e 68 129
e 68 135
e 68 137
e 68 194
e 68 204
e 68 222
e 68 248
e 69 73
e 69 78
e 69 88
e 69 89
e 69 97
e 69 99
e 69 110
e 69 112
e 69 129
e 69 132
e 69 135
e 69 137
e 69 140
e 69 146
e 69 160
e 69 165
e 69 181
e 69 193
e 69 197
e 69 198
e 69 201
e 69 207
e 69 216
e 69 226
e 70 75
e 70 76
e 70 83
e 70 97
e 70 100
e 70 109
e 70 115
e 70 119
e 70 120
e 70 121
e 70 123
e 70 133
e 70 163
e 70 169
e 70 170
e 70 171
e 70 172
e 70 176
e 70 178
e 70 186
e 70 192
e 70 216
e 70 234
e 70 235
e 70 241
e 70 245
e 71 75
e 71 76
e 71 88
e 71 94
e 71 112
e 71 122
e 71 127
e 71 128
e 71 139
e 71 149
e 71 156
e 71 158
e 71 161
e 71 172
e 71 179
e 71 200
e 71 201
e 71 210
e 71 213
e 71 214
e 71 215
e 71 216
e 71 217
e 71 223
e 71 243
e 71 244
e 71 245
e 71 250
e 72 73
e 72 74
e 72 84
e 72 86
e 72 87
e 72 90
e 72 106
e 72 110
e 72 117
e 72 123
e 72 124
e 72 125
e 72 127
e 72 133
e 72 135
e 72 137
e 72 141
e 72 150
e 72 154
e 72 162
e 72 173
e 72 197
e 72 198
e 72 199
e 72 200
e 72 207
e 72 219
e 72 230
e 72 243
e 73 74
e 73 80
e 73 97
e 73 100
e 73 109
e 73 110
e 73 112
e 73 126
e 73 130
e 73 141
e 73 185
e 73 249
e 74 79
e 74 105
e 74 113
e 74 116
e 74 123
e 74 132
e 74 145
e 74 146
e 74 154
e 74 181
e 74 184
e 74 209
e 74 215
e 74 228
e 74 232
e 74 240
e 74 242
e 75 81
e 75 84
e 75 91
e 75 99
e 75 118
e 75 128
e 75 147
e 75 159
e 75 165
e 75 169
e 75 177
e 75 202
e 75 210
e 75 232
e 75 237
e 75 239
e 75 240
e 75 241
e 76 83
e 76 85
e 76 92
e 76 103
e 76 146
e 76 155
e 76 203
e 76 237
e 77 79
e 77 84
e 77 97
e 77 103
e 77 121
e 77 125
e 77 129
e 77 130
e 77 140
e 77 160
e 77 166
e 77 175
e 77 178
e 77 179
e 77 180
e 77 191
e 77 197
e 77 201
e 77 204
e 77 206
e 77 209
e 77 214
e 77 227
e 77 238
e 77 243
e 77 250
e 78 80
e 78 90
e 78 92
e 78 97
e 78 101
e 78 154
e 78 157
e 78 166
e 78 168
e 78 180
e 78 186
e 78 188
e 78 206
e 78 225
e 78 235
e 78 243
e 78 249
e 79 83
e 79 85
e 79 96
e 79 99
e 79 111
e 79 113
e 79 120
e 79 126
e 79 129
e 79 137
e 79 192
e 79 198
e 79 213
e 79 222
e 79 228
e 79 231
e 79 236
e 80 86
e 80 90
e 80 95
e 80 103
e 80 115
e 80 117
e 80 131
e 80 145
e 80 149
e 80 174
e 80 189
e 80 208
e 80 213
e 80 216
e 80 219
e 80 224
e 80 247
e 81 82
e 81 94
e 81 95
e 81 129
e 81 130
e 81 136
e 81 142
e 81 145
e 81 157
e 81 159
e 81 163
e 81 165
e 81 166
e 81 170
e 81 172
e 81 184
e 81 206
e 81 217
e 81 238
e 82 88
e 82 107
e 82 115
e 82 127
e 82 133
e 82 148
e 82 207
e 82 212
e 82 215
e 82 219
e 82 221
e 82 238
e 82 244
e 82 245
e 83 87
e 83 89
e 83 97
e 83 98
e 83 100
e 83 106
e 83 112
e 83 114
e 83 125
e 83 176
e 83 184
e 83 185
e 83 187
e 83 203
e 83 216
e 83 228
e 83 245
e 84 93
e 84 96
e 84 101
e 84 113
e 84 120
e 84 130
e 84 131
e 84 135
e 84 138
e 84 146
e 84 186
e 84 187
e 84 202
e 84 208
e 84 213
e 84 224
e 84 225
e 84 236
e 84 246
e 85 125
e 85 214
e 85 216
e 85 235
e 86 89
e 86 90
e 86 99
e 86 109
e 86 132
e 86 136
e 86 138
e 86 148
e 86 161
e 86 171
e 86 176
e 86 177
e 86 181
e 86 185
e 86 194
e 86 195
e 86 206
e 86 218
e 86 223
e 86 229
e 86 239
e 87 90
e 87 91
e 87 92
e 87 110
e 87 121
e 87 123
e 87 141
e 87 153
e 87 163
e 87 164
e 87 169
e 87 190
e 87 191
e 87 215
e 87 217
e 87 220
e 87 231
e 87 233
e 87 250
e 88 93
e 88 121
e 88 122
e 88 129
e 88 131
e 88 144
e 88 177
e 88 204
e 88 225
e 89 99
e 89 116
e 89 119
e 89 120
e 89 128
e 89 131
e 89 146
e 89 151
e 89 154
e 89 164
e 89 184
e 89 188
e 89 191
e 89 200
e 89 205
e 89 225
e 89 234
e 89 239
e 89 246
e 89 247
e 89 250
e 90 94
e 90 110
e 90 111
e 90 121
e 90 127
e 90 141
e 90 161
e 90 163
e 90 167
e 90 179
e 90 211
e 90 227
e 90 234
e 90 246
e 91 114
e 91 143
e 91 144
e 91 155
e 91 183
e 91 193
e 91 211
e 91 213
e 91 223
e 91 228
e 92 148
e 92 149
e 92 168
e 92 189
e 92 240
e 93 96
e 93 109
e 93 110
e 93 135
e 93 150
e 93 154
e 93 158
e 93 169
e 93 171
e 93 173
e 93 180
e 93 193
e 93 202
e 93 205
e 93 206
e 93 207
e 93 224
e 93 240
e 93 243
e 93 245
e 94 101
e 94 110
e 94 117
e 94 125
e 94 151
e 94 166
e 94 181
e 94 188
e 94 202
e 94 208
e 94 219
e 94 233
e 94 246
e 94 247
e 95 100
e 95 102
e 95 106
e 95 122
e 95 126
e 95 146
e 95 147
e 95 151
e 95 153
e 95 175
e 95 178
e 95 188
e 95 207
e 95 226
e 96 104
e 96 106
e 96 108
e 96 122
e 96 131
e 96 135
e 96 145
e 96 146
e 96 166
e 96 183
e 96 195
e 96 221
e 97 99
e 97 102
e 97 107
e 97 113
e 97 128
e 97 133
e 97 141
e 97 142
e 97 145
e 97 174
e 97 187
e 97 215
e 97 221
e 97 230
e 97 242
e 97 244
e 98 101
e 98 111
e 98 126
e 98 140
e 98 172
e 98 173
e 98 177
e 98 178
e 98 190
e 98 193
e 98 209
e 98 225
e 98 236
e 99 115
e 99 120
e 99 121
e 99 137
e 99 167
e 99 203
e 99 247
e 100 121
e 100 181
e 100 183
e 100 242
e 100 248
e 101 103
e 101 117
e 101 148
e 101 150
e 101 177
e 101 187
e 101 191
e 101 203
e 102 123
e 102 124
e 102 140
e 102 164
e 102 165
e 102 171
e 102 181
e 102 216
e 102 239
e 103 119
e 103 137
e 103 163
e 103 191
e 103 207
e 103 243
e 104 111
e 104 117
e 104 126
e 104 142
e 104 167
e 104 186
e 104 197
e 105 116
e 105 118
e 105 139
e 105 142
e 105 152
e 105 154
e 105 177
e 105 214
e 105 215
e 105 223
e 105 241
e 106 122
e 106 138
e 106 187
e 106 209
e 106 214
e 106 227
e 106 229
e 107 160
e 107 167
e 107 203
e 108 109
e 108 112
e 108 117
e 108 121
e 108 162
e 108 168
e 108 174
e 108 177
e 108 185
e 108 194
e 108 202
e 108 230
e 108 234
e 108 240
e 109 113
e 109 128
e 109 140
e 109 142
e 109 156
e 109 162
e 109 172
e 109 195
e 109 219
e 109 234
e 109 238
e 109 244
e 110 129
e 110 132
e 110 139
e 110 147
e 110 148
e 110 149
e 110 151
e 110 163
e 110 164
e 110 169
e 110 179
e 110 186
e 110 202
e 110 209
e 110 228
e 111 117
e 111 125
e 111 143
e 111 188
e 111 192
e 111 194
e 111 202
e 111 204
e 111 217
e 112 119
e 112 124
e 112 138
e 112 147
e 112 148
e 112 173
e 112 197
e 112 200
e 112 203
e 112 248
e 113 114
e 113 120
e 113 124
e 113 126
e 113 136
e 114 143
e 114 146
e 114 157
e 114 184
e 114 194
e 115 148
e 115 158
e 115 186
e 115 196
e 115 213
e 115 215
e 115 234
e 116 135
e 116 164
e 116 168
e 116 179
e 116 187
e 116 242
e 116 244
e 116 249
e 117 119
e 117 120
e 117 144
e 117 147
e 117 153
e 117 156
e 117 218
e 117 242
e 118 125
e 118 140
e 118 164
e 118 189
e 118 198
e 118 205
e 118 242
e 119 130
e 119 140
e 119 153
e 119 156
e 119 181
e 119 192
e 120 147
e 120 155
e 120 170
e 120 173
e 120 191
e 120 194
e 120 210
e 121 135
e 121 138
e 121 158
e 121 246
e 122 166
e 123 146
e 123 149
e 123 151
e 123 171
e 123 213
e 123 224
e 123 232
e 123 248
e 124 137
e 124 148
e 124 154
e 124 156
e 124 216
e 125 133
e 125 136
e 125 137
e 125 159
e 125 160
e 125 170
e 125 173
e 125 200
e 125 226
e 126 151
e 126 155
e 126 200
e 126 220
e 126 227
e 127 153
e 127 160
e 127 175
e 127 180
e 127 182
e 127 191
e 127 242
e 127 249
e 129 146
e 129 183
e 129 195
e 129 217
e 129 225
e 130 138
e 130 144
e 130 151
e 130 154
e 130 163
e 130 196
e 130 205
e 130 227
e 130 243
e 131 139
e 131 156
e 131 186
e 131 215
e 132 133
e 132 134
e 132 139
e 132 144
e 132 158
e 132 163
e 132 186
e 133 147
e 133 158
e 134 136
e 134 169
e 134 217
e 134 219
e 134 229
e 134 231
e 134 242
e 135 150
e 135 172
e 135 176
e 135 190
e 135 204
e 135 218
e 136 152
e 136 171
e 136 176
e 137 151
e 138 155
e 138 164
e 138 165
e 138 167
e 138 169
e 138 172
e 138 183
e 138 192
e 138 218
e 138 226
e 138 228
e 138 230
e 139 152
e 139 156
e 139 158
e 139 161
e 139 176
e 139 184
e 139 190
e 139 205
e 139 229
e 139 237
e 140 179
e 140 193
e 140 245
e 141 153
e 141 154
e 141 183
e 141 204
e 141 236
e 142 150
e 142 151
e 142 160
e 142 206
e 142 221
e 142 250
e 143 148
e 143 157
e 143 171
e 143 176
e 143 194
e 143 208
e 143 209
e 143 237
e 144 151
e 144 181
e 144 224
e 144 231
e 144 245
e 145 191
e 145 197
e 145 208
e 146 212
e 147 160
e 147 163
e 147 178
e 147 189
e 147 222
e 147 224
e 148 185
e 148 237
e 148 247
e 149 168
e 149 173
e 149 189
e 149 224
e 149 227
e 149 232
e 149 244
e 150 164
e 151 157
e 151 170
e 151 181
e 151 185
e 151 186
e 151 192
e 151 239
e 152 159
e 152 170
e 152 182
e 152 185
e 152 196
e 152 202
e 152 224
e 152 234
e 152 236
e 152 241
e 153 206
e 153 232
e 154 168
e 154 172
e 154 188
e 154 239
e 155 162
e 155 183
e 155 192
e 155 209
e 155 218
e 155 238
e 156 157
e 156 175
e 156 195
e 156 200
e 156 211
e 156 230
e 157 158
e 157 161
e 157 207
e 157 229
e 157 234
e 157 238
e 158 180
e 158 210
e 158 250
e 159 174
e 159 181
e 159 194
e 159 218
e 159 220
e 160 199
e 160 243
e 160 250
e 161 184
e 161 189
e 161 193
e 161 205
e 161 206
e 161 217
e 161 220
e 161 245
e 162 176
e 162 199
e 162 207
e 163 166
e 163 197
e 163 239
e 164 184
e 164 196
e 164 197
e 164 203
e 164 211
e 165 175
e 165 192
e 165 211
e 165 221
e 165 247
e 166 172
e 166 173
e 166 174
e 166 179
e 166 219
e 166 225
e 166 230
e 166 233
e 167 195
e 167 204
e 167 221
e 168 195
e 168 218
e 168 233
e 169 178
e 169 186
e 169 195
e 169 196
e 169 248
e 170 183
e 170 198
e 170 202
e 170 211
e 170 215
e 171 179
e 171 191
e 171 205
e 171 228
e 171 248
e 172 212
e 173 191
e 173 207
e 173 218
e 173 219
e 173 229
e 173 249
e 174 231
e 174 240
e 175 176
e 175 201
e 175 231
e 176 191
e 176 199
e 176 210
e 176 245
e 176 246
e 177 186
e 177 193
e 177 212
e 177 217
e 178 189
e 178 229
e 178 244
e 179 227
e 179 233
e 179 236
e 180 201
e 180 204
e 180 207
e 180 215
e 180 220
e 180 250
e 181 213
e 181 249
e 182 222
e 182 238
e 183 184
e 183 187
e 183 194
e 183 214
e 183 218
e 183 229
e 184 210
e 184 247
e 185 196
e 185 197
e 185 218
e 185 240
e 185 250
e 186 189
e 186 202
e 186 222
e 186 235
e 187 195
e 187 203
e 187 208
e 188 190
e 188 210
e 188 222
e 188 247
e 189 194
e 189 211
e 190 206
e 190 250
e 191 194
e 191 242
e 192 218
e 194 205
e 195 204
e 195 205
e 195 213
e 195 217
e 195 222
e 195 233
e 196 240
e 197 237
e 198 223
e 198 226
e 198 243
e 199 214
e 199 224
e 199 248
e 200 220
e 201 243
e 202 211
e 202 214
e 202 223
e 202 225
e 203 232
e 205 213
e 205 240
e 206 221
e 206 234
e 207 231
e 209 212
e 209 220
e 210 214
e 210 222
e 210 228
e 210 235
e 212 221
e 212 238
e 214 219
e 215 246
e 216 224
e 216 237
e 218 223
e 219 235
e 219 243
e 219 248
e 220 239
e 220 240
e 220 241
e 220 245
e 220 249
e 221 248
e 222 245
e 223 232
e 224 226
e 224 235
e 225 239
e 225 248
e 226 237
e 227 244
e 229 232
e 229 250
e 230 240
e 232 245
e 233 239
e 235 245
e 236 238
e 236 240
e 238 244
e 242 246
